80 80
65 12
26 40
40 30
62 25
12 24
57 38
5 13
48 26
56 7
4 31
18 13
42 35
16 26
7 8
33 29
31 2
21 18
11 3
55 30
44 36
19 8
72 28
10 1
24 20
37 3
79 14
58 37
73 27
51 9
43 33
29 21
32 39
70 6
47 29
38 22
20 35
60 16
9 38
52 24
61 34
36 19
27 6
64 18
75 21
13 5
63 22
54 1
67 17
71 23
53 25
28 10
8 32
78 31
22 20
1 7
17 10
80 15
68 16
49 19
46 12
30 34
69 36
50 11
59 39
34 40
2 2
45 27
41 32
76 37
35 4
15 4
77 5
14 17
3 9
6 11
25 33
66 14
23 15
74 28
39 23
